unsat
(:max-memory                   18.19
 :memory                       17.97
 :nlsat-conflicts              55
 :nlsat-decisions              6
 :nlsat-irrational-assignments 5
 :nlsat-learned-added          54
 :nlsat-propagations           226
 :nlsat-stages                 50
 :num-allocs                   18240
 :rlimit-count                 22187
 :time                         0.01
 :total-time                   0.02)
